c 3-Coloring of graph with 25 vertices, 125 edges
c Variable x[v][c] = vertex v has color c  (v=0..24, c=0..2)
c Variable number: v*3 + c + 1
c SAT Competition 2026 — Experimental Track — LLM-Guided SAT Solver
c Difficulty: medium
p cnf 75 475
1 2 3 0
4 5 6 0
7 8 9 0
10 11 12 0
13 14 15 0
16 17 18 0
19 20 21 0
22 23 24 0
25 26 27 0
28 29 30 0
31 32 33 0
34 35 36 0
37 38 39 0
40 41 42 0
43 44 45 0
46 47 48 0
49 50 51 0
52 53 54 0
55 56 57 0
58 59 60 0
61 62 63 0
64 65 66 0
67 68 69 0
70 71 72 0
73 74 75 0
-1 -2 0
-1 -3 0
-2 -3 0
-4 -5 0
-4 -6 0
-5 -6 0
-7 -8 0
-7 -9 0
-8 -9 0
-10 -11 0
-10 -12 0
-11 -12 0
-13 -14 0
-13 -15 0
-14 -15 0
-16 -17 0
-16 -18 0
-17 -18 0
-19 -20 0
-19 -21 0
-20 -21 0
-22 -23 0
-22 -24 0
-23 -24 0
-25 -26 0
-25 -27 0
-26 -27 0
-28 -29 0
-28 -30 0
-29 -30 0
-31 -32 0
-31 -33 0
-32 -33 0
-34 -35 0
-34 -36 0
-35 -36 0
-37 -38 0
-37 -39 0
-38 -39 0
-40 -41 0
-40 -42 0
-41 -42 0
-43 -44 0
-43 -45 0
-44 -45 0
-46 -47 0
-46 -48 0
-47 -48 0
-49 -50 0
-49 -51 0
-50 -51 0
-52 -53 0
-52 -54 0
-53 -54 0
-55 -56 0
-55 -57 0
-56 -57 0
-58 -59 0
-58 -60 0
-59 -60 0
-61 -62 0
-61 -63 0
-62 -63 0
-64 -65 0
-64 -66 0
-65 -66 0
-67 -68 0
-67 -69 0
-68 -69 0
-70 -71 0
-70 -72 0
-71 -72 0
-73 -74 0
-73 -75 0
-74 -75 0
-1 -4 0
-2 -5 0
-3 -6 0
-1 -19 0
-2 -20 0
-3 -21 0
-1 -28 0
-2 -29 0
-3 -30 0
-1 -40 0
-2 -41 0
-3 -42 0
-1 -46 0
-2 -47 0
-3 -48 0
-1 -64 0
-2 -65 0
-3 -66 0
-1 -67 0
-2 -68 0
-3 -69 0
-4 -7 0
-5 -8 0
-6 -9 0
-4 -10 0
-5 -11 0
-6 -12 0
-4 -16 0
-5 -17 0
-6 -18 0
-4 -22 0
-5 -23 0
-6 -24 0
-4 -25 0
-5 -26 0
-6 -27 0
-4 -28 0
-5 -29 0
-6 -30 0
-4 -31 0
-5 -32 0
-6 -33 0
-4 -34 0
-5 -35 0
-6 -36 0
-4 -37 0
-5 -38 0
-6 -39 0
-4 -46 0
-5 -47 0
-6 -48 0
-4 -49 0
-5 -50 0
-6 -51 0
-4 -55 0
-5 -56 0
-6 -57 0
-4 -58 0
-5 -59 0
-6 -60 0
-4 -64 0
-5 -65 0
-6 -66 0
-4 -73 0
-5 -74 0
-6 -75 0
-7 -16 0
-8 -17 0
-9 -18 0
-7 -19 0
-8 -20 0
-9 -21 0
-7 -22 0
-8 -23 0
-9 -24 0
-7 -25 0
-8 -26 0
-9 -27 0
-7 -31 0
-8 -32 0
-9 -33 0
-7 -49 0
-8 -50 0
-9 -51 0
-7 -52 0
-8 -53 0
-9 -54 0
-7 -58 0
-8 -59 0
-9 -60 0
-7 -61 0
-8 -62 0
-9 -63 0
-7 -67 0
-8 -68 0
-9 -69 0
-7 -70 0
-8 -71 0
-9 -72 0
-7 -73 0
-8 -74 0
-9 -75 0
-10 -25 0
-11 -26 0
-12 -27 0
-10 -40 0
-11 -41 0
-12 -42 0
-10 -43 0
-11 -44 0
-12 -45 0
-10 -49 0
-11 -50 0
-12 -51 0
-10 -52 0
-11 -53 0
-12 -54 0
-10 -64 0
-11 -65 0
-12 -66 0
-10 -73 0
-11 -74 0
-12 -75 0
-13 -16 0
-14 -17 0
-15 -18 0
-13 -25 0
-14 -26 0
-15 -27 0
-13 -28 0
-14 -29 0
-15 -30 0
-13 -46 0
-14 -47 0
-15 -48 0
-13 -70 0
-14 -71 0
-15 -72 0
-16 -37 0
-17 -38 0
-18 -39 0
-16 -58 0
-17 -59 0
-18 -60 0
-16 -61 0
-17 -62 0
-18 -63 0
-16 -67 0
-17 -68 0
-18 -69 0
-16 -73 0
-17 -74 0
-18 -75 0
-19 -25 0
-20 -26 0
-21 -27 0
-19 -31 0
-20 -32 0
-21 -33 0
-19 -49 0
-20 -50 0
-21 -51 0
-19 -58 0
-20 -59 0
-21 -60 0
-19 -70 0
-20 -71 0
-21 -72 0
-22 -28 0
-23 -29 0
-24 -30 0
-22 -34 0
-23 -35 0
-24 -36 0
-22 -40 0
-23 -41 0
-24 -42 0
-22 -43 0
-23 -44 0
-24 -45 0
-22 -52 0
-23 -53 0
-24 -54 0
-22 -55 0
-23 -56 0
-24 -57 0
-22 -61 0
-23 -62 0
-24 -63 0
-22 -70 0
-23 -71 0
-24 -72 0
-25 -28 0
-26 -29 0
-27 -30 0
-25 -34 0
-26 -35 0
-27 -36 0
-25 -37 0
-26 -38 0
-27 -39 0
-25 -43 0
-26 -44 0
-27 -45 0
-25 -49 0
-26 -50 0
-27 -51 0
-25 -58 0
-26 -59 0
-27 -60 0
-25 -61 0
-26 -62 0
-27 -63 0
-28 -31 0
-29 -32 0
-30 -33 0
-28 -34 0
-29 -35 0
-30 -36 0
-28 -46 0
-29 -47 0
-30 -48 0
-28 -55 0
-29 -56 0
-30 -57 0
-28 -61 0
-29 -62 0
-30 -63 0
-28 -67 0
-29 -68 0
-30 -69 0
-31 -34 0
-32 -35 0
-33 -36 0
-31 -46 0
-32 -47 0
-33 -48 0
-31 -61 0
-32 -62 0
-33 -63 0
-31 -67 0
-32 -68 0
-33 -69 0
-31 -70 0
-32 -71 0
-33 -72 0
-31 -73 0
-32 -74 0
-33 -75 0
-34 -37 0
-35 -38 0
-36 -39 0
-34 -40 0
-35 -41 0
-36 -42 0
-34 -43 0
-35 -44 0
-36 -45 0
-34 -49 0
-35 -50 0
-36 -51 0
-34 -67 0
-35 -68 0
-36 -69 0
-34 -73 0
-35 -74 0
-36 -75 0
-37 -43 0
-38 -44 0
-39 -45 0
-37 -46 0
-38 -47 0
-39 -48 0
-37 -52 0
-38 -53 0
-39 -54 0
-37 -55 0
-38 -56 0
-39 -57 0
-37 -70 0
-38 -71 0
-39 -72 0
-40 -46 0
-41 -47 0
-42 -48 0
-40 -55 0
-41 -56 0
-42 -57 0
-40 -58 0
-41 -59 0
-42 -60 0
-40 -61 0
-41 -62 0
-42 -63 0
-40 -67 0
-41 -68 0
-42 -69 0
-40 -70 0
-41 -71 0
-42 -72 0
-43 -49 0
-44 -50 0
-45 -51 0
-43 -58 0
-44 -59 0
-45 -60 0
-43 -64 0
-44 -65 0
-45 -66 0
-43 -67 0
-44 -68 0
-45 -69 0
-43 -73 0
-44 -74 0
-45 -75 0
-46 -58 0
-47 -59 0
-48 -60 0
-46 -61 0
-47 -62 0
-48 -63 0
-46 -64 0
-47 -65 0
-48 -66 0
-46 -70 0
-47 -71 0
-48 -72 0
-46 -73 0
-47 -74 0
-48 -75 0
-49 -58 0
-50 -59 0
-51 -60 0
-49 -64 0
-50 -65 0
-51 -66 0
-49 -73 0
-50 -74 0
-51 -75 0
-52 -58 0
-53 -59 0
-54 -60 0
-52 -64 0
-53 -65 0
-54 -66 0
-52 -67 0
-53 -68 0
-54 -69 0
-55 -58 0
-56 -59 0
-57 -60 0
-55 -67 0
-56 -68 0
-57 -69 0
-55 -73 0
-56 -74 0
-57 -75 0
-58 -67 0
-59 -68 0
-60 -69 0
-61 -64 0
-62 -65 0
-63 -66 0
-61 -67 0
-62 -68 0
-63 -69 0
-64 -67 0
-65 -68 0
-66 -69 0
-64 -70 0
-65 -71 0
-66 -72 0
-70 -73 0
-71 -74 0
-72 -75 0
